nNurses = 122;
nHours = 32;
minHours = 10;
maxHours = 15;
maxConsec = 10;
maxPresence = 29;
demand = [29, 25, 30, 28, 32, 32, 30, 33, 32, 33, 31, 31, 29, 24, 29, 26, 21, 21, 25, 21, 22, 26, 31, 36, 37, 32, 27, 28, 28, 30, 34, 35];
